18675.0
1 0 1 1 0 1 0 1 1 1 0 1 0 1 1 0 0 1 0 0 1 0 1 0 1 1 0 0 0 0 
20 11 13 2 20 5 2 24 14 17 22 8 8 20 3 14 14 0 5 11 2 0 5 3 5 8 2 24 5 24 5 25 20 25 20 20 24 24 0 14 0 14 24 8 24 14 0 13 11 8 5 14 14 5 13 20 17 11 11 14 0 5 20 11 11 11 9 0 22 9 20 20 11 17 24 8 24 20 14 24 20 7 20 17 17 0 2 7 20 5 2 24 7 11 17 9 2 3 25 13 8 17 17 25 2 25 7 11 14 8 14 14 17 11 11 25 24 24 24 24 5 8 25 13 8 0 5 24 0 25 0 11 24 5 8 14 7 5 20 17 0 8 20 14 8 25 25 5 2 5 